Gurobi Optimizer version 9.1.0 build v9.1.0rc0 (linux64)
Thread count: 8 physical cores, 16 logical processors, using up to 16 threads
Optimize a model with 207966 rows, 200800 columns and 1151950 nonzeros
Model fingerprint: 0x4e46d991
Variable types: 0 continuous, 200800 integer (200800 binary)
Coefficient statistics:
  Matrix range     [1e+00, 1e+00]
  Objective range  [1e+01, 5e+04]
  Bounds range     [1e+00, 1e+00]
  RHS range        [1e+00, 5e+02]
Presolve removed 3050 rows and 50 columns (presolve time = 5s) ...
Presolve added 0 rows and 2950 columns
Presolve removed 50 rows and 0 columns
Presolve time: 5.04s
Presolved: 207916 rows, 203750 columns, 860850 nonzeros
Variable types: 0 continuous, 203750 integer (203750 binary)
Found heuristic solution: objective 1044076.0000

Concurrent LP optimizer: primal simplex, dual simplex, and barrier
Showing barrier log only...

Root barrier log...

Ordering time: 0.07s

Barrier statistics:
 Dense cols : 400
 AA' NZ     : 6.668e+05
 Factor NZ  : 2.815e+06 (roughly 200 MBytes of memory)
 Factor Ops : 6.809e+08 (less than 1 second per iteration)
 Threads    : 6

                  Objective                Residual
Iter       Primal          Dual         Primal    Dual     Compl     Time
   0   2.28595391e+08 -2.75258362e+08  5.04e+02 2.88e+01  1.68e+04     9s
   1   2.43628063e+06 -3.44228300e+08  7.69e+00 1.11e+04  7.59e+02    10s
   2   1.33707498e+06 -1.71712409e+08  1.35e+00 4.63e+03  3.11e+02    10s
   3   1.25205987e+06 -9.55277785e+07  8.45e-01 2.53e+03  1.70e+02    10s
   4   1.17305651e+06 -4.81083837e+07  3.61e-01 1.19e+03  8.45e+01    11s
   5   1.13539744e+06 -5.65807850e+06  1.69e-01 1.34e+02  1.15e+01    11s
   6   1.09762130e+06 -7.10008222e+05  6.40e-02 3.24e+01  3.02e+00    12s
   7   1.07583635e+06  1.26058041e+05  4.48e-02 1.57e+01  1.58e+00    12s
   8   1.05859616e+06  6.64547810e+05  3.58e-02 5.04e+00  6.48e-01    12s
   9   1.04905371e+06  7.93939858e+05  3.11e-02 2.81e+00  4.17e-01    13s
  10   1.04424830e+06  8.18198167e+05  2.92e-02 2.34e+00  3.69e-01    13s
  11   1.03003216e+06  8.76225751e+05  2.38e-02 1.32e+00  2.49e-01    14s
  12   1.02206443e+06  8.99932244e+05  2.11e-02 8.98e-01  1.97e-01    14s
  13   1.01332384e+06  9.12373298e+05  1.84e-02 6.79e-01  1.63e-01    15s
  14   1.01001730e+06  9.22664449e+05  1.74e-02 5.12e-01  1.40e-01    16s
  15   1.00056580e+06  9.31308993e+05  1.47e-02 3.60e-01  1.11e-01    16s
  16   9.93192594e+05  9.35489090e+05  1.25e-02 2.88e-01  9.22e-02    17s
  17   9.89161376e+05  9.39902187e+05  1.12e-02 2.17e-01  7.85e-02    17s
  18   9.82699499e+05  9.43814231e+05  9.27e-03 1.48e-01  6.18e-02    18s
  19   9.78234908e+05  9.45489633e+05  7.95e-03 1.18e-01  5.20e-02    18s
  20   9.75025667e+05  9.46782576e+05  7.02e-03 9.57e-02  4.48e-02    19s
  21   9.72032900e+05  9.47421982e+05  6.14e-03 8.23e-02  3.91e-02    20s
  22   9.69590088e+05  9.48480736e+05  5.35e-03 6.59e-02  3.35e-02    20s
  23   9.67508442e+05  9.49174743e+05  4.68e-03 5.56e-02  2.91e-02    21s
  24   9.66855111e+05  9.49640506e+05  4.46e-03 4.86e-02  2.73e-02    21s
  25   9.63875721e+05  9.50069987e+05  3.52e-03 4.22e-02  2.19e-02    22s
  26   9.63018948e+05  9.50528730e+05  3.25e-03 3.57e-02  1.98e-02    22s
  27   9.61020909e+05  9.50912519e+05  2.62e-03 3.20e-02  1.60e-02    22s
  28   9.60671019e+05  9.51128446e+05  2.51e-03 2.88e-02  1.51e-02    23s
  29   9.59381590e+05  9.51299075e+05  2.09e-03 2.65e-02  1.28e-02    23s
  30   9.58775707e+05  9.51556532e+05  1.89e-03 2.25e-02  1.14e-02    24s
  31   9.58319201e+05  9.51635352e+05  1.74e-03 2.15e-02  1.06e-02    24s
  32   9.57329356e+05  9.51886944e+05  1.42e-03 1.80e-02  8.62e-03    25s
  33   9.56802444e+05  9.52141463e+05  1.25e-03 1.44e-02  7.37e-03    25s
  34   9.56397298e+05  9.52227868e+05  1.11e-03 1.31e-02  6.60e-03    26s
  35   9.55902855e+05  9.52375980e+05  9.55e-04 1.12e-02  5.58e-03    26s
  36   9.55618223e+05  9.52462521e+05  8.55e-04 9.87e-03  4.99e-03    27s
  37   9.55235644e+05  9.52588204e+05  7.27e-04 8.11e-03  4.18e-03    27s
  38   9.55014650e+05  9.52639644e+05  6.57e-04 7.35e-03  3.75e-03    28s
  39   9.54802298e+05  9.52797923e+05  5.81e-04 5.02e-03  3.16e-03    28s
  40   9.54535137e+05  9.52861901e+05  4.90e-04 3.99e-03  2.63e-03    28s
  41   9.54185108e+05  9.52919603e+05  3.68e-04 3.08e-03  1.99e-03    29s
  42   9.54041028e+05  9.52966003e+05  3.17e-04 2.43e-03  1.69e-03    29s
  43   9.53895412e+05  9.52991994e+05  2.68e-04 2.02e-03  1.42e-03    30s
  44   9.53754265e+05  9.53021369e+05  2.19e-04 1.59e-03  1.15e-03    30s
  45   9.53657509e+05  9.53060462e+05  1.87e-04 9.97e-04  9.36e-04    31s
  46   9.53519785e+05  9.53070523e+05  1.40e-04 8.16e-04  7.05e-04    31s
  47   9.53499918e+05  9.53075865e+05  1.32e-04 7.38e-04  6.65e-04    32s
  48   9.53410899e+05  9.53082630e+05  1.01e-04 6.26e-04  5.15e-04    32s
  49   9.53306850e+05  9.53094839e+05  6.38e-05 4.18e-04  3.33e-04    33s
  50   9.53248059e+05  9.53102610e+05  4.32e-05 3.03e-04  2.29e-04    33s
  51   9.53241229e+05  9.53104610e+05  4.10e-05 2.75e-04  2.15e-04    34s
  52   9.53174001e+05  9.53108065e+05  1.70e-05 2.23e-04  1.04e-04    34s
  53   9.53150060e+05  9.53115622e+05  8.52e-06 1.16e-04  5.46e-05    34s
  54   9.53136519e+05  9.53123452e+05  3.84e-06 9.25e-06  2.05e-05    35s
  55   9.53125423e+05  9.53124411e+05  2.69e-07 3.39e-07  1.60e-06    35s
  56   9.53124521e+05  9.53124520e+05  3.24e-10 6.21e-08  2.23e-09    35s

Barrier solved model in 56 iterations and 35.36 seconds
Optimal objective 9.53124521e+05


Root crossover log...

  101060 DPushes remaining with DInf 0.0000000e+00                36s
       0 DPushes remaining with DInf 0.0000000e+00                36s

     847 PPushes remaining with PInf 0.0000000e+00                36s
       0 PPushes remaining with PInf 0.0000000e+00                36s

  Push phase complete: Pinf 0.0000000e+00, Dinf 6.9121597e-11     36s


Root simplex log...

Iteration    Objective       Primal Inf.    Dual Inf.      Time
   10596    9.5312452e+05   0.000000e+00   0.000000e+00     36s
   10596    9.5312452e+05   0.000000e+00   0.000000e+00     36s

Solved with barrier

Root relaxation: objective 9.531245e+05, 10596 iterations, 28.79 seconds

    Nodes    |    Current Node    |     Objective Bounds      |     Work
 Expl Unexpl |  Obj  Depth IntInf | Incumbent    BestBd   Gap | It/Node Time

     0     0 953124.520    0 5181 1044076.00 953124.520  8.71%     -   39s
H    0     0                    997306.00000 953124.520  4.43%     -   44s
     0     0 953137.349    0 5227 997306.000 953137.349  4.43%     -   53s
H    0     0                    953650.00000 953137.349  0.05%     -   94s
     0     0 953137.810    0 5231 953650.000 953137.810  0.05%     -   95s
     0     0 953138.014    0 5227 953650.000 953138.014  0.05%     -  101s
     0     0 953142.863    0 5245 953650.000 953142.863  0.05%     -  111s
     0     0 953142.863    0 4921 953650.000 953142.863  0.05%     -  125s
H    0     0                    953647.00000 953142.863  0.05%     -  128s
     0     0 953148.998    0 5003 953647.000 953148.998  0.05%     -  130s
     0     0 953149.539    0 5009 953647.000 953149.539  0.05%     -  131s
     0     0 953149.546    0 5011 953647.000 953149.546  0.05%     -  132s
     0     0 953154.071    0 4997 953647.000 953154.071  0.05%     -  134s
     0     0 953154.442    0 5003 953647.000 953154.442  0.05%     -  135s
     0     0 953154.483    0 5006 953647.000 953154.483  0.05%     -  135s
     0     0 953255.429    0 4989 953647.000 953255.429  0.04%     -  139s
     0     0 953288.500    0 5003 953647.000 953288.500  0.04%     -  141s
     0     0 953288.500    0 5006 953647.000 953288.500  0.04%     -  141s
     0     0 953318.000    0 5015 953647.000 953318.000  0.03%     -  145s
     0     0 953340.750    0 5030 953647.000 953340.750  0.03%     -  146s
     0     0 953379.000    0 5039 953647.000 953379.000  0.03%     -  148s
H    0     0                    953534.00000 953404.714  0.01%     -  150s
     0     0 953404.714    0 5048 953534.000 953404.714  0.01%     -  150s
     0     0 953405.143    0 5048 953534.000 953405.143  0.01%     -  151s
     0     0 953409.000    0 5115 953534.000 953409.000  0.01%     -  154s
     0     0 953412.667    0 5036 953534.000 953412.667  0.01%     -  157s
     0     0 953412.667    0 4783 953534.000 953412.667  0.01%     -  166s
     0     0 953412.667    0 4901 953534.000 953412.667  0.01%     -  173s
     0     0 953412.667    0 4947 953534.000 953412.667  0.01%     -  174s
     0     0 953412.667    0 4961 953534.000 953412.667  0.01%     -  174s
     0     0 953412.667    0 4944 953534.000 953412.667  0.01%     -  177s
     0     0 953412.667    0 4949 953534.000 953412.667  0.01%     -  178s
     0     0 953412.667    0 4919 953534.000 953412.667  0.01%     -  181s
     0     0 953412.667    0 4920 953534.000 953412.667  0.01%     -  181s
     0     0 953412.667    0 4971 953534.000 953412.667  0.01%     -  185s
     0     0 953412.667    0 4962 953534.000 953412.667  0.01%     -  185s
     0     0 953412.667    0 4961 953534.000 953412.667  0.01%     -  187s
     0     0 953412.667    0 4970 953534.000 953412.667  0.01%     -  188s
     0     0 953412.667    0 4976 953534.000 953412.667  0.01%     -  190s
     0     0 953412.667    0 4912 953534.000 953412.667  0.01%     -  192s
     0     2 953412.667    0 4912 953534.000 953412.667  0.01%     -  200s
     1     5 953412.667    1 4853 953534.000 953412.667  0.01%  9597  208s
     3     8 953438.574    2 4688 953534.000 953412.667  0.01%  5218  211s
*    9    10               3    953452.00000 953412.667  0.00%  2592  211s

Cutting planes:
  Gomory: 3
  Zero half: 189

Explored 15 nodes (63101 simplex iterations) in 211.75 seconds
Thread count was 16 (of 16 available processors)

Solution count 8: 953452 953534 953534 ... 1.04408e+06

Optimal solution found (tolerance 1.00e-04)
Best objective 9.534520000000e+05, best bound 9.534126666667e+05, gap 0.0041%

User-callback calls 28405, time in user-callback 0.42 sec
['/opt/local/stow/gurobi910/linux64/lib/libgurobi91.so']
Optimal Result: runtime=211.71sec; objective=953452; gap=0.0000%
Solution written to /autofs/unityaccount/cremi/mdeboute/Bureau/multi-period-flp/solution//instMulti_I50_J500_T8_1_result.txt
